\ This file has been generated by DOcplex
\ ENCODING=ISO-8859-1
\Problem name: LABS of size 4

Minimize
 obj: [ 2 C_1^2 + 2 C_2^2 + 2 C_3^2 ]/2
Subject To
 c1: - 4 b_1 - 4 b_2 - 2 b_3 - 2 b_4 + 4 b_y_1_2 + 4 b_y_2_3 + 4 b_y_3_4 - C_1
      = -3
 c2: - 2 b_1 - 2 b_2 - 2 b_3 - 2 b_4 + 4 b_y_1_3 + 4 b_y_2_4 - C_2 = -2
 c3: - 2 b_3 - 2 b_4 + 4 b_y_1_4 - C_3 = -1
 c4: b_y_1_2 - 0.500000000000 b_1 - 0.500000000000 b_2 <= 0
 c5: b_y_1_2 - b_1 - b_2 >= -1
 c6: b_y_2_3 - 0.500000000000 b_2 - 0.500000000000 b_3 <= 0
 c7: b_y_2_3 - b_2 - b_3 >= -1
 c8: b_y_3_4 - 0.500000000000 b_3 - 0.500000000000 b_4 <= 0
 c9: b_y_3_4 - b_3 - b_4 >= -1
 c10: b_y_1_3 - 0.500000000000 b_1 - 0.500000000000 b_3 <= 0
 c11: b_y_1_3 - b_1 - b_3 >= -1
 c12: b_y_2_4 - 0.500000000000 b_2 - 0.500000000000 b_4 <= 0
 c13: b_y_2_4 - b_2 - b_4 >= -1
 c14: b_y_1_4 - 0.500000000000 b_1 - 0.500000000000 b_4 <= 0
 c15: b_y_1_4 - b_1 - b_4 >= -1

Bounds
 0 <= b_1 <= 1
 0 <= b_2 <= 1
 0 <= b_3 <= 1
 0 <= b_4 <= 1
 0 <= b_y_1_2 <= 1
 0 <= b_y_2_3 <= 1
 0 <= b_y_3_4 <= 1
 0 <= b_y_1_3 <= 1
 0 <= b_y_2_4 <= 1
 0 <= b_y_1_4 <= 1
 -3 <= C_1 <= 3
 -2 <= C_2 <= 2
 -1 <= C_3 <= 1

Binaries
 b_1 b_2 b_3 b_4 b_y_1_2 b_y_2_3 b_y_3_4 b_y_1_3 b_y_2_4 b_y_1_4

Generals
 C_1 C_2 C_3
End
